19
17
18 11 4 16 15 7 17 9 10 3 0 6 14 5 8
5 11 18 2 7 14
17 1 5 2 14 7 6 9 8
3 12 4 2 10 17 13 6 9 5 8 15 11 16 7 1 18 14 0
11 7 17 5 1 10
17 6 3 1 11 5 12 8 14 4 9 2 16 18 10 7 0
12 0 5 13
11 9 6 8 13 10 1 5 16 15 17
11 9 8 2 17 0
5 15 8 2 4 0 13 7 16 11 6 3 10 14 9 17 12
2 12 0 5 8 10 14 6 13 7 1 18 17 4 15
2 18 14 3 7 4 9 17 5 8 13 10
9 13 4 15 16 7 12 6 17 0 8
9 17 8 5 4 14 13 0 11 3 12 10 15 2 7 16 18 6 1
0 3 16 17 2 6 4 10 11 7 8 18
2 17 5 18 11 16 10 0 6
8 12
